%chk=KKK.chk
%mem=20GB
%nprocshared=10
# b3lyp/6-311g(d,p) scrf=(solvent=cyclohexane) em=gd3bj

structure

0 1
 C                 -2.10592000    3.75887000    1.37219000
 C                 -1.60939000    2.45225000    1.65816000
 C                 -0.21187700    2.24566000    1.63671000
 C                  0.65999200    3.29197000    1.26355000
 C                  0.10627200    4.58203000    1.02992000
 C                 -1.25460000    4.80285000    1.07649000
 C                  2.03624000    3.00374000    1.08155000
 C                  2.54388000    1.74455000    1.31007000
 C                  1.66772000    0.72016200    1.67168000
 C                  0.29460200    0.97684100    1.83770000
 C                  2.14438000   -0.60362500    1.83175000
 C                  3.59718000   -0.90376000    1.53491000
 C                  4.47681000    0.06850150    1.17786000
 C                  4.03719000    1.51576000    1.11742000
 C                 -2.49091000    1.38189000    1.89862000
 C                 -1.97837000    0.12604200    2.14472000
 C                 -0.59054300   -0.09382820    2.05152000
 C                  1.27779000   -1.62753000    2.17763000
 C                 -0.08789000   -1.40771000    2.12818000
 H                 -3.18330000    3.97329000    1.36610000
 H                 -1.66286000    5.80538000    0.86845800
 H                  0.75843500    5.43093000    0.77948300
 S                  3.13754000    4.30396000    0.51194100
 C                  2.65701000    4.46181000   -1.23339000
 C                  2.96302000    3.18138000   -2.01173000
 C                  5.95979000   -0.17886000    0.88315000
 C                  6.25679000   -1.67143000    0.68147800
 C                  5.51075000   -2.52796000    1.70543000
 C                  3.99950000   -2.37751000    1.53959000
 C                  6.48565000    0.64885300   -0.30936000
 C                  7.97300000    0.42359100   -0.63105600
 C                  8.50736000    1.32855000   -1.74778000
 C                  9.98464000    1.06424000   -2.05257000
 C                  3.28419000   -3.11759000    2.64933000
 C                  1.75802000   -3.01293000    2.58907000
 C                 -1.05777000   -2.59205000    2.06931000
 C                 -0.44741200   -3.98227000    2.31334000
 C                  0.98832700   -4.06645000    1.78525000
 C                 -2.95029000   -1.01289000    2.45800000
 C                 -2.22667000   -2.25294000    2.98803000
 C                 -3.99489000    1.58351000    1.82239000
 C                 -4.41168000    1.44505000    0.35171900
 C                 -5.92079000    1.51544000    0.10404400
 C                 -6.24923000    1.33787000   -1.38264000
 C                 -7.74867000    1.34048000   -1.66979000
 H                  4.30793000    1.90329000    0.12136000
 H                  4.61640000    2.09498000    1.85647000
 H                  3.21623000    5.30828000   -1.66384000
 H                  1.58606000    4.70959000   -1.30315000
 H                  2.40759000    2.32150000   -1.60609000
 H                  4.03795000    2.94543000   -1.96858000
 H                  2.68751000    3.28116000   -3.07330000
 H                  6.51277000    0.14963000    1.78411000
 H                  7.34337000   -1.85551000    0.75089800
 H                  5.94671000   -1.97938000   -0.33301000
 H                  5.80911000   -2.21811000    2.72168000
 H                  5.79509000   -3.59013000    1.60365000
 H                  3.70805000   -2.81470000    0.56618600
 H                  6.36608000    1.72736000   -0.10532100
 H                  5.88315000    0.43087600   -1.20904000
 H                  8.14329000   -0.62717300   -0.92398900
 H                  8.56627000    0.59410200    0.28524700
 H                  8.37737000    2.38868000   -1.46715000
 H                  7.91280000    1.16975000   -2.66479000
 H                 10.13870000    0.01543640   -2.35487000
 H                 10.60560000    1.25664000   -1.16283000
 H                 10.35220000    1.70827000   -2.86764000
 H                  3.60082000   -4.17497000    2.67354000
 H                  3.61071000   -2.68109000    3.60933000
 H                  1.43658000   -3.16956000    3.63832000
 H                 -1.45026000   -2.61779000    1.03237000
 H                 -1.09931000   -4.75574000    1.87180000
 H                 -0.42328700   -4.19484000    3.39756000
 H                  1.03608000   -3.87534000    0.70047000
 H                  1.39746000   -5.07669000    1.95504000
 H                 -3.69105000   -0.70948900    3.21521000
 H                 -3.51054000   -1.28544000    1.54522000
 H                 -2.93207000   -3.09899000    3.05123000
 H                 -1.86469000   -2.07272000    4.01381000
 H                 -4.30774000    2.55944000    2.22649000
 H                 -4.56147000    0.86005100    2.42527000
 H                 -4.04546000    0.47700500   -0.03760590
 H                 -3.91982000    2.22710000   -0.25391700
 H                 -6.31679000    2.48283000    0.46098300
 H                 -6.42849000    0.72601100    0.68724200
 H                 -5.80797000    0.38829700   -1.73574000
 H                 -5.76659000    2.14424000   -1.96398000
 H                 -7.95004000    1.22211000   -2.74680000
 H                 -8.20756000    2.28727000   -1.34131000
 H                 -8.25114000    0.51571400   -1.13841000
 C                  6.50685000    2.08331000    4.30425000
 C                  5.29705000    1.45885000    4.73073000
 C                  4.10630000    2.21856000    4.69448000
 C                  4.11204000    3.55386000    4.23105000
 C                  5.34218000    4.09752000    3.76577000
 C                  6.51668000    3.37507000    3.81893000
 C                  2.90187000    4.29431000    4.25934000
 C                  1.72573000    3.72710000    4.69715000
 C                  1.73941000    2.40862000    5.15472000
 C                  2.93267000    1.66568000    5.16419000
 C                  0.54992400    1.80049000    5.62273000
 C                 -0.71785700    2.62118000    5.69955000
 C                 -0.76128300    3.91682000    5.29496000
 C                  0.45820100    4.57136000    4.67984000
 C                  5.29201000    0.13352300    5.20599000
 C                  4.13090000   -0.38999800    5.73770000
 C                  2.95418000    0.38590900    5.74532000
 C                  0.56068600    0.49154700    6.07440000
 C                  1.77223000   -0.13987600    6.30261000
 H                  7.46928000    1.55552000    4.34755000
 H                  7.46233000    3.82713000    3.47742000
 H                  5.38140000    5.12115000    3.36631000
 S                  2.88602000    6.00807000    3.70284000
 C                  3.73562000    6.86011000    5.06545000
 C                  2.85780000    6.91316000    6.31573000
 C                 -2.01126000    4.79838000    5.35855000
 C                 -3.12210000    4.16192000    6.20594000
 C                 -3.21960000    2.65495000    5.95710000
 C                 -1.92193000    1.95863000    6.36760000
 C                 -1.68500000    6.22239000    5.85734000
 C                 -2.89172000    7.15449000    6.06031000
 C                 -2.46922000    8.57580000    6.45389000
 C                 -3.65594000    9.49627000    6.74966000
 C                 -1.98195000    0.48811500    6.01111000
 C                 -0.71123300   -0.29227300    6.36001000
 C                  1.83893000   -1.38438000    7.19211000
 C                  0.48838900   -1.98568000    7.61746000
 C                 -0.60023400   -0.91722500    7.75395000
 C                  4.15460000   -1.80241000    6.32992000
 C                  2.75038000   -2.38778000    6.49755000
 C                  6.56014000   -0.70765800    5.17541000
 C                  7.32982000   -0.60159700    6.49897000
 C                  8.48932000   -1.60228000    6.56629000
 C                  9.21933000   -1.61294000    7.91253000
 C                 10.33410000   -2.65997000    7.96293000
 H                  0.66526800    5.49661000    5.24329000
 H                  0.21003700    4.87352000    3.64884000
 H                  3.97290000    7.88401000    4.73344000
 H                  4.69106000    6.35688000    5.28167000
 H                  2.59383000    5.90279000    6.66358000
 H                  1.92322000    7.45978000    6.11392000
 H                  3.36928000    7.42291000    7.14611000
 H                 -2.39064000    4.88011000    4.32218000
 H                 -4.08673000    4.65382000    5.98918000
 H                 -2.91639000    4.32983000    7.27832000
 H                 -3.42287000    2.47454000    4.88666000
 H                 -4.06932000    2.22547000    6.51732000
 H                 -1.80352000    2.05940000    7.46265000
 H                 -1.01087000    6.72487000    5.14109000
 H                 -1.13382000    6.15712000    6.81274000
 H                 -3.55532000    6.75119000    6.84578000
 H                 -3.48953000    7.19399000    5.13228000
 H                 -1.85837000    9.01292000    5.64425000
 H                 -1.82043000    8.52392000    7.34645000
 H                 -4.26331000    9.09599000    7.57768000
 H                 -4.30864000    9.59603000    5.86741000
 H                 -3.32018000   10.50590000    7.03756000
 H                 -2.86711000    0.01622090    6.47207000
 H                 -2.13068000    0.40770100    4.92057000
 H                 -0.72435600   -1.15173000    5.65941000
 H                  2.33997000   -1.06901000    8.12968000
 H                  0.61910500   -2.56568000    8.54689000
 H                  0.15043400   -2.71406000    6.85790000
 H                 -0.34785700   -0.17066300    8.52533000
 H                 -1.55268000   -1.38528000    8.05316000
 H                  4.72969000   -2.50369000    5.70834000
 H                  4.64341000   -1.77627000    7.32074000
 H                  2.80297000   -3.32753000    7.07512000
 H                  2.32972000   -2.64891000    5.51388000
 H                  7.21971000   -0.42457700    4.33972000
 H                  6.34280000   -1.76566000    4.96700000
 H                  6.64928000   -0.79390900    7.34668000
 H                  7.71378000    0.42444200    6.63380000
 H                  9.21207000   -1.38552000    5.75951000
 H                  8.09551000   -2.61652000    6.37123000
 H                  8.49382000   -1.81447000    8.72063000
 H                  9.64278000   -0.61327600    8.11273000
 H                 10.85040000   -2.65394000    8.93647000
 H                 11.08690000   -2.46738000    7.18180000
 H                  9.93010000   -3.67325000    7.80452000




