%nprocshared=4
%mem=1000MB
%chk=E:\Desktop\ggg.chk
# b3lyp/6-311g(d,p) scrf=(solvent=cyclohexane) em=gd3bj

"Sketch 1"

0 1
 C                 -2.88281000    1.68505000   -1.60059000
 C                 -2.29643000    0.28690200   -1.42430000
 C                 -0.94179600    0.06323180   -1.70894000
 C                 -0.14771900    1.13026000   -2.13523000
 C                 -0.55952400    2.44578000   -2.28085000
 N                 -1.86824000    2.71393000   -1.95318000
 C                  0.25419300    3.47226000   -2.69794000
 C                  1.63100000    3.22189000   -3.02437000
 C                  1.96988000    1.89193000   -2.84170000
 C                  1.20958000    0.90038600   -2.43522000
 C                  1.85192000   -0.33749900   -2.33053000
 C                  0.99091500   -1.44858000   -1.83786000
 C                 -0.36456400   -1.20360000   -1.54859000
 C                 -1.15354000   -2.22635000   -1.02054000
 C                 -0.55859000   -3.44599000   -0.65054500
 C                  0.74410600   -3.71387000   -1.02697000
 C                  1.52615000   -2.71603000   -1.58561000
 C                  1.37363000   -5.07826000   -0.80181900
 C                  0.28609800   -6.15383000   -0.73906300
 C                 -0.66368400   -5.80953000    0.40824100
 C                 -1.38578000   -4.46962000    0.13318100
 C                 -2.53915000   -2.03990000   -0.85396400
 C                 -3.08858000   -0.77681000   -1.01408000
 C                 -2.73343000   -4.54267000   -0.59382200
 C                 -3.44513000   -3.19250000   -0.43701900
 C                 -4.55821000   -0.51695000   -0.72357600
 C                 -4.73438000   -0.10504300    0.74399900
 C                 -6.14034000    0.42165600    1.04992000
 C                 -6.25555000    0.97374900    2.47060000
 C                 -1.62559000   -6.95104000    0.79125600
 C                 -0.92004700   -8.17676000    1.37618000
 O                  2.85684000   -2.99845000   -1.83250000
 S                  3.62178000    1.60456000   -3.22080000
 C                  3.14349000   -0.27578400   -2.69771000
 C                  2.51437000    4.34640000   -3.48575000
 C                  3.16563000    5.03762000   -2.27996000
 C                  4.07360000    6.20643000   -2.67834000
 C                  4.75139000    6.86536000   -1.47573000
 H                 -3.36986000    2.00188000   -0.66512900
 H                 -3.63214000    1.66350000   -2.40577000
 H                 -0.14947800    4.49184000   -2.77691000
 H                  2.08542000   -5.31668000   -1.60838000
 H                  1.95173000   -5.07915000    0.13966500
 H                  0.75284000   -7.14262000   -0.59454900
 H                 -0.26757600   -6.19987000   -1.69263000
 H                 -0.02490750   -5.63586000    1.29716000
 H                 -1.60281000   -4.03678000    1.13058000
 H                 -2.58189000   -4.78936000   -1.65694000
 H                 -3.37871000   -5.33434000   -0.17930300
 H                 -3.74006000   -3.06980000    0.62051200
 H                 -4.37249000   -3.21086000   -1.02938000
 H                 -5.19727000   -1.38370000   -0.94433400
 H                 -4.94711000    0.28142600   -1.37552000
 H                 -4.00647000    0.68592400    0.99805400
 H                 -4.50756000   -0.95771000    1.40717000
 H                 -6.88377000   -0.37974800    0.89572000
 H                 -6.38668000    1.22334000    0.33084100
 H                 -7.25810000    1.38724000    2.66305000
 H                 -5.52312000    1.78214000    2.63182000
 H                 -6.06519000    0.18832400    3.21931000
 H                 -2.21611000   -7.25867000   -0.08954210
 H                 -2.34670000   -6.57889000    1.54126000
 H                 -0.26095400   -8.64990000    0.63230400
 H                 -1.64880000   -8.93279000    1.70928000
 H                 -0.30495500   -7.88976000    2.24355000
 H                  3.36922000   -2.28690000   -1.46949000
 H                  3.90304000   -1.06087000   -2.77521000
 H                  1.91427000    5.08334000   -4.04621000
 H                  3.29078000    4.00996000   -4.19094000
 H                  3.76081000    4.29862000   -1.71402000
 H                  2.37902000    5.40132000   -1.59535000
 H                  3.48519000    6.96154000   -3.22882000
 H                  4.84759000    5.84274000   -3.37644000
 H                  5.35618000    6.13069000   -0.92015000
 H                  4.00263000    7.28045000   -0.78222300
 H                  5.41799000    7.68677000   -1.78521000
 C                 -0.59366200    1.07168000   -5.82278000
 C                 -0.09672710   -0.35733100   -5.62793000
 C                 -0.98869100   -1.35151000   -5.20190000
 C                 -2.31960000   -1.01148000   -4.94985000
 C                 -2.88125000    0.24836700   -5.08859000
 N                 -2.04315000    1.24424000   -5.53366000
 C                 -4.19446000    0.54597800   -4.81119000
 C                 -5.08996000   -0.47635500   -4.34803000
 C                 -4.46322000   -1.70670000   -4.25689000
 C                 -3.21198000   -2.01106000   -4.51511000
 C                 -2.87621000   -3.35403000   -4.31917000
 C                 -1.45587000   -3.69091000   -4.60966000
 C                 -0.57471900   -2.68092000   -5.04086000
 C                  0.74565400   -3.00582000   -5.35571000
 C                  1.14882000   -4.35309000   -5.36513000
 C                  0.31567200   -5.32032000   -4.83343000
 C                 -0.98570700   -5.00178000   -4.48399000
 C                  0.77473600   -6.75732000   -4.65417000
 C                  2.29912000   -6.80834000   -4.53165000
 C                  2.90063000   -6.20956000   -5.80292000
 C                  2.52840000   -4.71298000   -5.92698000
 C                  1.67328000   -1.99056000   -5.65749000
 C                  1.23305000   -0.68825400   -5.84506000
 C                  3.50168000   -3.69978000   -5.31058000
 C                  3.15546000   -2.30174000   -5.84012000
 C                  2.19104000    0.39469500   -6.31338000
 C                  2.23040000    0.41988400   -7.84593000
 C                  3.16119000    1.50538000   -8.39360000
 C                  3.17622000    1.54707000   -9.92125000
 C                  4.40869000   -6.47663000   -5.96977000
 C                  4.75103000   -7.95171000   -6.17841000
 O                 -1.81209000   -6.02356000   -4.04313000
 S                 -5.54825000   -2.92869000   -3.72321000
 C                 -3.92398000   -4.08611000   -3.90185000
 C                 -6.51625000   -0.15279500   -4.00377000
 C                 -7.44839000   -0.44999000   -5.18487000
 C                 -8.92672000   -0.30253500   -4.80815000
 C                 -9.86504000   -0.66369900   -5.95917000
 H                 -0.41608600    1.37989000   -6.86522000
 H                 -0.03902390    1.74257000   -5.14968000
 H                 -4.55911000    1.57367000   -4.93932000
 H                  0.31362400   -7.20770000   -3.75982000
 H                  0.45287700   -7.37009000   -5.51584000
 H                  2.62122000   -7.85177000   -4.38524000
 H                  2.63917000   -6.24668000   -3.64488000
 H                  2.40495000   -6.72152000   -6.65231000
 H                  2.51809000   -4.49629000   -7.01432000
 H                  3.44433000   -3.72831000   -4.21010000
 H                  4.54797000   -3.92753000   -5.57259000
 H                  3.42010000   -2.25323000   -6.91180000
 H                  3.78558000   -1.56564000   -5.31712000
 H                  3.20784000    0.25030300   -5.92152000
 H                  1.89192000    1.38674000   -5.94134000
 H                  1.21294000    0.58552400   -8.24189000
 H                  2.55639000   -0.56287300   -8.22903000
 H                  4.18628000    1.33445000   -8.02022000
 H                  2.84308000    2.48875000   -8.00407000
 H                  3.84689000    2.33667000  -10.29670000
 H                  2.16758000    1.74756000  -10.31690000
 H                  3.52038000    0.58722800  -10.33930000
 H                  4.96017000   -6.10173000   -5.08969000
 H                  4.77924000   -5.90665000   -6.84063000
 H                  4.47383000   -8.55773000   -5.30229000
 H                  5.83206000   -8.08419000   -6.34624000
 H                  4.22181000   -8.35740000   -7.05566000
 H                 -2.57112000   -6.04400000   -4.61310000
 H                 -3.99438000   -5.14566000   -3.63403000
 H                 -6.60420000    0.91161600   -3.73024000
 H                 -6.84968000   -0.70898500   -3.11185000
 H                 -7.28168000   -1.47750000   -5.55162000
 H                 -7.21787000    0.22633300   -6.02700000
 H                 -9.11891000    0.73222200   -4.47626000
 H                 -9.13821000   -0.95645100   -3.94363000
 H                 -9.69879000   -1.70443000   -6.28087000
 H                 -9.68911000   -0.00858086   -6.82748000
 H                -10.92250000   -0.56349100   -5.66809000



S
